NAME : cgl_58.3652.tour
COMMENT : Length = 3652
COMMENT : Found by LKH-3 [Keld Helsgaun] Fri Nov  8 17:38:20 2024
TYPE : TOUR
DIMENSION : 59
TOUR_SECTION
2
1
59
58
57
47
45
56
41
35
43
55
37
52
34
53
42
38
48
49
36
54
51
33
46
50
39
44
40
23
16
24
21
14
15
27
11
19
13
10
26
25
9
12
17
22
7
6
8
18
20
31
29
32
30
28
5
4
3
-1
EOF
